c A SAT instance generated from a 3-CNF formula that had 22 clauses and 11 variables
p cnf 11 22
7 -4 -3 0
-6 3 -4 0
4 8 10 0
-9 2 -4 0
-10 -8 -1 0
-10 -1 -9 0
-5 9 -1 0
-6 5 -7 0
7 2 10 0
4 -11 9 0
7 -10 5 0
1 -9 2 0
1 -8 -6 0
5 -8 -10 0
2 -4 -1 0
9 3 -4 0
11 10 7 0
8 5 6 0
3 -1 9 0
3 2 -6 0
-11 1 3 0
10 9 7 0
